(set-option :produce-models true); benchmark generated from python API
(set-info :status unknown)
(declare-fun l_1_0_9 () Real)
(declare-fun l_1_0_8 () Real)
(declare-fun l_1_0_7 () Real)
(declare-fun l_1_0_6 () Real)
(declare-fun l_1_0_5 () Real)
(declare-fun l_1_0_4 () Real)
(declare-fun l_1_0_3 () Real)
(declare-fun l_1_0_2 () Real)
(declare-fun l_1_0_1 () Real)
(declare-fun _a_0_ () Real)
(declare-fun l_1_0_13 () Real)
(declare-fun l_1_0_11 () Real)
(declare-fun l_1_0_12 () Real)
(declare-fun l_1_0_10 () Real)
(declare-fun _a_1_ () Real)
(declare-fun _a_2_ () Real)
(declare-fun l_1_0_14 () Real)
(declare-fun _a_3_ () Real)
(declare-fun l_1_1_9 () Real)
(declare-fun l_1_1_8 () Real)
(declare-fun l_1_1_7 () Real)
(declare-fun l_1_1_6 () Real)
(declare-fun l_1_1_3 () Real)
(declare-fun l_1_1_15 () Real)
(declare-fun l_1_1_14 () Real)
(declare-fun l_1_1_13 () Real)
(declare-fun l_1_1_12 () Real)
(declare-fun l_1_1_10 () Real)
(declare-fun l_1_1_5 () Real)
(declare-fun l_1_1_4 () Real)
(declare-fun l_1_1_2 () Real)
(declare-fun l_1_1_11 () Real)
(declare-fun l_1_1_1 () Real)
(declare-fun l_1_1_20 () Real)
(declare-fun l_1_1_19 () Real)
(declare-fun l_1_1_18 () Real)
(declare-fun l_1_1_17 () Real)
(declare-fun l_1_1_16 () Real)
(declare-fun l_1_2_7 () Real)
(declare-fun l_1_2_6 () Real)
(declare-fun l_1_2_4 () Real)
(declare-fun l_1_2_3 () Real)
(declare-fun l_1_2_15 () Real)
(declare-fun l_1_2_14 () Real)
(declare-fun l_1_2_13 () Real)
(declare-fun l_1_2_12 () Real)
(declare-fun l_1_2_11 () Real)
(declare-fun l_1_2_10 () Real)
(declare-fun l_1_2_9 () Real)
(declare-fun l_1_2_8 () Real)
(declare-fun l_1_2_5 () Real)
(declare-fun l_1_2_2 () Real)
(declare-fun l_1_2_1 () Real)
(declare-fun l_1_2_17 () Real)
(declare-fun l_1_2_16 () Real)
(declare-fun l_1_2_19 () Real)
(declare-fun l_1_2_18 () Real)
(declare-fun l_1_2_20 () Real)
(assert
 (let ((?x41 (* l_1_0_9 l_1_0_9)))
 (let ((?x1215 (* (/ 1.0 8.0) l_1_0_5)))
 (let ((?x50 (* (/ 1.0 8.0) l_1_0_3)))
 (let ((?x47 (- (- (- (- _a_0_ (* (/ 1.0 64.0) l_1_0_1)) (* (/ 1.0 8.0) l_1_0_2)) ?x50) l_1_0_4)))
 (= (- (- (- (- (- ?x47 ?x1215) l_1_0_6) l_1_0_7) l_1_0_8) ?x41) 0.0))))))
(assert
 (let ((?x1049 (- (- _a_1_ (* 2.0 l_1_0_1)) (* (* 2.0 l_1_0_10) l_1_0_12))))
 (= (- ?x1049 (* (* 2.0 l_1_0_11) l_1_0_13)) 0.0)))
(assert
 (let ((?x924 (* l_1_0_11 l_1_0_11)))
 (let ((?x925 (- (- (- _a_2_ (* (/ 3.0 4.0) l_1_0_1)) (* l_1_0_10 l_1_0_10)) ?x924)))
 (= (+ (+ (+ ?x925 l_1_0_2) l_1_0_3) l_1_0_5) 0.0))))
(assert
 (let ((?x946 (* l_1_0_14 l_1_0_14)))
 (let ((?x945 (* l_1_0_13 l_1_0_13)))
 (let ((?x55 (- (- (- _a_3_ (* (/ 3.0 4.0) l_1_0_1)) (* l_1_0_12 l_1_0_12)) ?x945)))
 (= (+ (+ (+ (- ?x55 ?x946) l_1_0_2) l_1_0_3) l_1_0_5) 0.0)))))
(assert
 (let ((?x869 (* 1.0 l_1_0_5)))
 (let ((?x867 (* 1.0 l_1_0_3)))
 (let ((?x865 (* 1.0 l_1_0_2)))
 (let ((?x868 (- (- (- (* (- (/ 1.0 4.0)) l_1_0_1) (* (* 2.0 l_1_0_10) l_1_0_9)) ?x865) ?x867)))
 (= (- ?x868 ?x869) 0.0))))))
(assert
 (let ((?x869 (* 1.0 l_1_0_5)))
 (let ((?x867 (* 1.0 l_1_0_3)))
 (let ((?x865 (* 1.0 l_1_0_2)))
 (let ((?x814 (- (- (- (* (- (/ 1.0 4.0)) l_1_0_1) (* (* 2.0 l_1_0_12) l_1_0_9)) ?x865) ?x867)))
 (= (- ?x814 ?x869) 0.0))))))
(assert
 (= (- l_1_0_1) 0.0))
(assert
 (let ((?x1067 (* 2.0 l_1_0_1)))
 (= ?x1067 0.0)))
(assert
 (let ((?x859 (* (- 2.0) l_1_0_1)))
 (= ?x859 0.0)))
(assert
 (let ((?x1067 (* 2.0 l_1_0_1)))
 (= ?x1067 0.0)))
(assert
 (let ((?x1067 (* 2.0 l_1_0_1)))
 (= ?x1067 0.0)))
(assert
 (= (- l_1_0_1) 0.0))
(assert
 (let ((?x1067 (* 2.0 l_1_0_1)))
 (= ?x1067 0.0)))
(assert
 (>= l_1_0_1 0.0))
(assert
 (>= l_1_0_2 0.0))
(assert
 (>= l_1_0_3 0.0))
(assert
 (>= l_1_0_4 0.0))
(assert
 (>= l_1_0_5 0.0))
(assert
 (>= l_1_0_6 0.0))
(assert
 (>= l_1_0_7 0.0))
(assert
 (>= l_1_0_8 0.0))
(assert
 (>= l_1_0_9 0.0))
(assert
 (>= l_1_0_11 0.0))
(assert
 (>= l_1_0_14 0.0))
(assert
 (let ((?x530 (* l_1_1_15 l_1_1_15)))
 (let ((?x492 (* _a_0_ l_1_1_4)))
 (let ((?x22 (+ (- (* (- _a_0_) l_1_1_1) (* _a_0_ l_1_1_11)) (* (* 1.0 _a_0_) l_1_1_2))))
 (let ((?x724 (+ (+ (- ?x22 ?x492) (* (* 1.0 _a_0_) l_1_1_5)) (* 1.0 l_1_1_10))))
 (let ((?x533 (- (- (- (- (+ ?x724 (* 1.0 l_1_1_12)) l_1_1_13) l_1_1_14) ?x530) (* 1.0 l_1_1_3))))
 (let ((?x655 (- (- (- (+ ?x533 (* 1.0 l_1_1_6)) l_1_1_7) l_1_1_8) (* (* l_1_1_9 _a_0_) _a_0_))))
 (= (+ ?x655 4.0) 0.0))))))))
(assert
 (let ((?x474 (* l_1_1_20 l_1_1_20)))
 (let ((?x472 (* l_1_1_19 l_1_1_19)))
 (let ((?x471 (* l_1_1_18 l_1_1_18)))
 (let ((?x509 (* _a_3_ l_1_1_4)))
 (let ((?x504 (* _a_3_ l_1_1_11)))
 (let ((?x502 (* _a_3_ l_1_1_1)))
 (let ((?x508 (+ (- (- (* (* (* (- 2.0) _a_0_) _a_3_) l_1_1_9) ?x502) ?x504) (* (* 1.0 _a_3_) l_1_1_2))))
 (let ((?x473 (- (- (+ (- ?x508 ?x509) (* (* 1.0 _a_3_) l_1_1_5)) ?x471) ?x472)))
 (= (- (- ?x473 ?x474) 1.0) 0.0))))))))))
(assert
 (let ((?x17 (* _a_1_ l_1_1_4)))
 (let ((?x381 (* _a_1_ l_1_1_11)))
 (let ((?x379 (* _a_1_ l_1_1_1)))
 (let ((?x373 (+ (- (- (* (* (* (- 2.0) _a_0_) _a_1_) l_1_1_9) ?x379) ?x381) (* (* 1.0 _a_1_) l_1_1_2))))
 (let ((?x11 (- (+ (- ?x373 ?x17) (* (* 1.0 _a_1_) l_1_1_5)) (* (* 2.0 l_1_1_16) l_1_1_18))))
 (= (- ?x11 (* (* 2.0 l_1_1_17) l_1_1_19)) 0.0)))))))
(assert
 (let ((?x278 (* l_1_1_17 l_1_1_17)))
 (let ((?x316 (* l_1_1_16 l_1_1_16)))
 (let ((?x321 (* _a_2_ l_1_1_4)))
 (let ((?x337 (* _a_2_ l_1_1_11)))
 (let ((?x331 (* _a_2_ l_1_1_1)))
 (let ((?x315 (+ (- (- (* (* (* (- 2.0) _a_0_) _a_2_) l_1_1_9) ?x331) ?x337) (* (* 1.0 _a_2_) l_1_1_2))))
 (let ((?x279 (- (- (+ (- ?x315 ?x321) (* (* 1.0 _a_2_) l_1_1_5)) ?x316) ?x278)))
 (= ?x279 0.0)))))))))
(assert
 (let ((?x16 (* _a_1_ _a_1_)))
 (let ((?x247 (+ ?x16 (* (* 2.0 _a_2_) _a_3_))))
 (let ((?x244 (- l_1_1_9)))
 (= (* ?x244 ?x247) 0.0)))))
(assert
 (= (* (* (* (- 2.0) _a_1_) _a_2_) l_1_1_9) 0.0))
(assert
 (= (* (* (* (- 2.0) _a_1_) _a_3_) l_1_1_9) 0.0))
(assert
 (= (* (* (- l_1_1_9) _a_2_) _a_2_) 0.0))
(assert
 (= (* (* (- l_1_1_9) _a_3_) _a_3_) 0.0))
(assert
 (= (* (* (- 2.0) l_1_1_15) l_1_1_16) 0.0))
(assert
 (= (* (* (- 2.0) l_1_1_15) l_1_1_18) 0.0))
(assert
 (>= l_1_1_1 0.0))
(assert
 (>= l_1_1_2 0.0))
(assert
 (>= l_1_1_3 0.0))
(assert
 (>= l_1_1_4 0.0))
(assert
 (>= l_1_1_5 0.0))
(assert
 (>= l_1_1_6 0.0))
(assert
 (>= l_1_1_7 0.0))
(assert
 (>= l_1_1_8 0.0))
(assert
 (>= l_1_1_9 0.0))
(assert
 (>= l_1_1_10 0.0))
(assert
 (>= l_1_1_11 0.0))
(assert
 (>= l_1_1_12 0.0))
(assert
 (>= l_1_1_13 0.0))
(assert
 (>= l_1_1_14 0.0))
(assert
 (>= l_1_1_15 0.0))
(assert
 (>= l_1_1_17 0.0))
(assert
 (>= l_1_1_20 0.0))
(assert
 (let ((?x1015 (* l_1_2_15 l_1_2_15)))
 (let ((?x516 (* _a_0_ l_1_2_8)))
 (let ((?x515 (- (- (* (- _a_0_) l_1_2_1) (* _a_0_ l_1_2_2)) (* (* 1.0 _a_0_) l_1_2_5))))
 (let ((?x1011 (- (+ (- (- ?x515 ?x516) (* (* 1.0 _a_0_) l_1_2_9)) _a_0_) (* 1.0 l_1_2_10))))
 (let ((?x1012 (- (- (- ?x1011 (* 1.0 l_1_2_11)) (* 1.0 l_1_2_12)) (* 1.0 l_1_2_13))))
 (let ((?x428 (- (- (- (- ?x1012 l_1_2_14) ?x1015) (* (* l_1_2_3 _a_0_) _a_0_)) l_1_2_4)))
 (= (- (- ?x428 l_1_2_6) l_1_2_7) 0.0))))))))
(assert
 (let ((?x890 (* l_1_2_17 l_1_2_17)))
 (let ((?x951 (* l_1_2_16 l_1_2_16)))
 (let ((?x962 (* (/ 1.0 100.0) _a_3_)))
 (let ((?x955 (* (/ 790123456790123.0 1000000000000000.0) _a_2_)))
 (let ((?x960 (* _a_2_ l_1_2_8)))
 (let ((?x1098 (* _a_2_ l_1_2_2)))
 (let ((?x304 (* _a_2_ l_1_2_1)))
 (let ((?x305 (- (+ (* (* (* (- 2.0) _a_0_) _a_2_) l_1_2_3) (* (/ 888888888888889.0 10000000000000000.0) _a_1_)) ?x304)))
 (let ((?x953 (- (- (- (- ?x305 ?x1098) (* (* 1.0 _a_2_) l_1_2_5)) ?x960) (* (* 1.0 _a_2_) l_1_2_9))))
 (= (- (- (+ (+ ?x953 ?x955) ?x962) ?x951) ?x890) 0.0)))))))))))
(assert
 (let ((?x1176 (* (/ 9.0 50.0) _a_3_)))
 (let ((?x1165 (* (/ 493827160493827.0 5000000000000000.0) _a_2_)))
 (let ((?x1158 (* (/ 198611111111111.0 250000000000000.0) _a_1_)))
 (let ((?x834 (* _a_1_ l_1_2_8)))
 (let ((?x832 (* _a_1_ l_1_2_2)))
 (let ((?x595 (* _a_1_ l_1_2_1)))
 (let ((?x831 (- (- (- (* (* (* (- 2.0) _a_0_) _a_1_) l_1_2_3) ?x595) ?x832) (* (* 1.0 _a_1_) l_1_2_5))))
 (let ((?x1175 (- (+ (- (- ?x831 ?x834) (* (* 1.0 _a_1_) l_1_2_9)) ?x1158) ?x1165)))
 (let ((?x1171 (- (- (+ ?x1175 ?x1176) (* (* 2.0 l_1_2_16) l_1_2_18)) (* (* 2.0 l_1_2_17) l_1_2_19))))
 (= ?x1171 0.0)))))))))))
(assert
 (let ((?x1077 (* l_1_2_20 l_1_2_20)))
 (let ((?x1073 (* l_1_2_19 l_1_2_19)))
 (let ((?x1070 (* l_1_2_18 l_1_2_18)))
 (let ((?x676 (* (/ 81.0 100.0) _a_3_)))
 (let ((?x659 (* _a_3_ l_1_2_8)))
 (let ((?x642 (* _a_3_ l_1_2_2)))
 (let ((?x640 (* _a_3_ l_1_2_1)))
 (let ((?x637 (* (/ 154320987654321.0 50000000000000000.0) _a_2_)))
 (let ((?x639 (+ (- (* (* (* (- 2.0) _a_0_) _a_3_) l_1_2_3) (* (/ 1.0 20.0) _a_1_)) ?x637)))
 (let ((?x660 (- (- (- (- ?x639 ?x640) ?x642) (* (* 1.0 _a_3_) l_1_2_5)) ?x659)))
 (let ((?x1076 (- (- (+ (- ?x660 (* (* 1.0 _a_3_) l_1_2_9)) ?x676) ?x1070) ?x1073)))
 (= (- ?x1076 ?x1077) 0.0)))))))))))))
(assert
 (let ((?x16 (* _a_1_ _a_1_)))
 (let ((?x247 (+ ?x16 (* (* 2.0 _a_2_) _a_3_))))
 (let ((?x973 (- l_1_2_3)))
 (= (* ?x973 ?x247) 0.0)))))
(assert
 (= (* (* (* (- 2.0) _a_1_) _a_2_) l_1_2_3) 0.0))
(assert
 (= (* (* (* (- 2.0) _a_1_) _a_3_) l_1_2_3) 0.0))
(assert
 (= (* (* (- l_1_2_3) _a_2_) _a_2_) 0.0))
(assert
 (= (* (* (- l_1_2_3) _a_3_) _a_3_) 0.0))
(assert
 (= (* (* (- 2.0) l_1_2_15) l_1_2_16) 0.0))
(assert
 (= (* (* (- 2.0) l_1_2_15) l_1_2_18) 0.0))
(assert
 (>= l_1_2_1 0.0))
(assert
 (>= l_1_2_2 0.0))
(assert
 (>= l_1_2_3 0.0))
(assert
 (>= l_1_2_4 0.0))
(assert
 (>= l_1_2_5 0.0))
(assert
 (>= l_1_2_6 0.0))
(assert
 (>= l_1_2_7 0.0))
(assert
 (>= l_1_2_8 0.0))
(assert
 (>= l_1_2_9 0.0))
(assert
 (>= l_1_2_10 0.0))
(assert
 (>= l_1_2_11 0.0))
(assert
 (>= l_1_2_12 0.0))
(assert
 (>= l_1_2_13 0.0))
(assert
 (>= l_1_2_14 0.0))
(assert
 (>= l_1_2_15 0.0))
(assert
 (>= l_1_2_17 0.0))
(assert
 (>= l_1_2_20 0.0))
(check-sat)
(get-model)